24
XYZ file generated by gabedit : coordinates in Angstrom
C         -3.6930990000          0.7033650000         -0.0043540000
C         -3.6940980000         -0.6981090000         -0.0034810000
C         -2.4872780000         -1.3929130000         -0.0013240000
C         -1.2386710000         -0.7227920000         -0.0004560000
C         -0.0009980000         -1.4003780000          0.0013890000
C          1.2376370000         -0.7245540000          0.0018060000
C          2.4852900000         -1.3964510000          0.0032390000
C          3.6930990000         -0.7033640000          0.0032970000
C          3.6940990000          0.6981100000          0.0024340000
C          2.4872780000          1.3929140000          0.0014980000
C          1.2386710000          0.7227900000          0.0009030000
C          0.0009980000          1.4003760000         -0.0003420000
C         -1.2376380000          0.7245520000         -0.0013620000
C         -2.4852900000          1.3964510000         -0.0030620000
H         -4.6383810000          1.2539160000         -0.0056950000
H         -4.6401650000         -1.2473110000         -0.0040960000
H         -2.4859100000         -2.4876250000         -0.0001810000
H         -0.0017770000         -2.4955490000          0.0011270000
H          2.4823640000         -2.4911600000          0.0043820000
H          4.6383850000         -1.2539100000          0.0043660000
H          4.6401640000          1.2473160000          0.0028970000
H          2.4858940000          2.4876270000          0.0013130000
H          0.0017750000          2.4955470000         -0.0019560000
H         -2.4823530000          2.4911610000         -0.0032660000
 
