3
Time:     0.000000 au
O      0.00000000     0.00000000     0.11779000
H      0.00000000     0.75545300    -0.47116000
H      0.00000000    -0.75545300    -0.47116000
3
Time:     0.010000 au
O      0.00000016     0.00000014     0.11778967
H      0.00000099     0.75545206    -0.47115925
H     -0.00000358    -0.75545427    -0.47115542
3
Time:     0.020000 au
O      0.00000032     0.00000028     0.11778933
H      0.00000198     0.75545113    -0.47115850
H     -0.00000715    -0.75545555    -0.47115084
3
Time:     0.030000 au
O      0.00000048     0.00000041     0.11778900
H      0.00000297     0.75545021    -0.47115775
H     -0.00001073    -0.75545684    -0.47114626
3
Time:     0.040000 au
O      0.00000065     0.00000055     0.11778867
H      0.00000397     0.75544930    -0.47115701
H     -0.00001431    -0.75545813    -0.47114170
3
Time:     0.050000 au
O      0.00000081     0.00000069     0.11778834
H      0.00000496     0.75544840    -0.47115628
H     -0.00001788    -0.75545944    -0.47113713
3
Time:     0.060000 au
O      0.00000097     0.00000083     0.11778801
H      0.00000595     0.75544750    -0.47115555
H     -0.00002146    -0.75546075    -0.47113257
3
Time:     0.070000 au
O      0.00000113     0.00000097     0.11778768
H      0.00000694     0.75544662    -0.47115483
H     -0.00002504    -0.75546207    -0.47112802
3
Time:     0.080000 au
O      0.00000129     0.00000110     0.11778735
H      0.00000793     0.75544574    -0.47115411
H     -0.00002861    -0.75546340    -0.47112347
3
Time:     0.090000 au
O      0.00000145     0.00000124     0.11778702
H      0.00000892     0.75544487    -0.47115340
H     -0.00003219    -0.75546473    -0.47111893
3
Time:     0.100000 au
O      0.00000162     0.00000138     0.11778669
H      0.00000992     0.75544401    -0.47115269
H     -0.00003577    -0.75546608    -0.47111439
3
Time:     0.110000 au
O      0.00000178     0.00000152     0.11778637
H      0.00001091     0.75544316    -0.47115198
H     -0.00003934    -0.75546743    -0.47110986
3
Time:     0.120000 au
O      0.00000194     0.00000166     0.11778604
H      0.00001190     0.75544231    -0.47115129
H     -0.00004292    -0.75546880    -0.47110533
3
Time:     0.130000 au
O      0.00000210     0.00000179     0.11778571
H      0.00001289     0.75544148    -0.47115059
H     -0.00004650    -0.75547017    -0.47110081
3
Time:     0.140000 au
O      0.00000226     0.00000193     0.11778539
H      0.00001388     0.75544065    -0.47114990
H     -0.00005007    -0.75547155    -0.47109629
3
Time:     0.150000 au
O      0.00000242     0.00000207     0.11778506
H      0.00001487     0.75543983    -0.47114922
H     -0.00005365    -0.75547294    -0.47109178
3
Time:     0.160000 au
O      0.00000259     0.00000221     0.11778474
H      0.00001587     0.75543902    -0.47114854
H     -0.00005723    -0.75547433    -0.47108727
3
Time:     0.170000 au
O      0.00000275     0.00000235     0.11778441
H      0.00001686     0.75543822    -0.47114787
H     -0.00006081    -0.75547574    -0.47108277
3
Time:     0.180000 au
O      0.00000291     0.00000248     0.11778409
H      0.00001785     0.75543742    -0.47114720
H     -0.00006438    -0.75547715    -0.47107827
3
Time:     0.190000 au
O      0.00000307     0.00000262     0.11778377
H      0.00001884     0.75543664    -0.47114654
H     -0.00006796    -0.75547857    -0.47107378
3
Time:     0.200000 au
O      0.00000323     0.00000276     0.11778345
H      0.00001983     0.75543586    -0.47114588
H     -0.00007154    -0.75548000    -0.47106929
3
Time:     0.210000 au
O      0.00000339     0.00000290     0.11778313
H      0.00002082     0.75543509    -0.47114523
H     -0.00007511    -0.75548144    -0.47106481
3
Time:     0.220000 au
O      0.00000355     0.00000303     0.11778281
H      0.00002182     0.75543433    -0.47114458
H     -0.00007869    -0.75548289    -0.47106033
3
Time:     0.230000 au
O      0.00000372     0.00000317     0.11778249
H      0.00002281     0.75543358    -0.47114394
H     -0.00008227    -0.75548434    -0.47105586
3
Time:     0.240000 au
O      0.00000388     0.00000331     0.11778217
H      0.00002380     0.75543283    -0.47114330
H     -0.00008584    -0.75548581    -0.47105139
3
Time:     0.250000 au
O      0.00000404     0.00000345     0.11778185
H      0.00002479     0.75543210    -0.47114267
H     -0.00008942    -0.75548728    -0.47104693
3
Time:     0.260000 au
O      0.00000420     0.00000359     0.11778153
H      0.00002578     0.75543137    -0.47114204
H     -0.00009300    -0.75548876    -0.47104247
3
Time:     0.270000 au
O      0.00000436     0.00000372     0.11778121
H      0.00002677     0.75543065    -0.47114142
H     -0.00009657    -0.75549025    -0.47103802
3
Time:     0.280000 au
O      0.00000452     0.00000386     0.11778090
H      0.00002777     0.75542994    -0.47114080
H     -0.00010015    -0.75549174    -0.47103357
3
Time:     0.290000 au
O      0.00000469     0.00000400     0.11778058
H      0.00002876     0.75542924    -0.47114019
H     -0.00010373    -0.75549325    -0.47102913
3
Time:     0.300000 au
O      0.00000485     0.00000414     0.11778027
H      0.00002975     0.75542855    -0.47113958
H     -0.00010730    -0.75549476    -0.47102469
3
Time:     0.310000 au
O      0.00000501     0.00000428     0.11777995
H      0.00003074     0.75542786    -0.47113898
H     -0.00011088    -0.75549629    -0.47102026
3
Time:     0.320000 au
O      0.00000517     0.00000441     0.11777964
H      0.00003173     0.75542719    -0.47113838
H     -0.00011446    -0.75549782    -0.47101583
3
Time:     0.330000 au
O      0.00000533     0.00000455     0.11777932
H      0.00003272     0.75542652    -0.47113779
H     -0.00011803    -0.75549936    -0.47101141
3
Time:     0.340000 au
O      0.00000549     0.00000469     0.11777901
H      0.00003372     0.75542586    -0.47113720
H     -0.00012161    -0.75550090    -0.47100699
3
Time:     0.350000 au
O      0.00000566     0.00000483     0.11777870
H      0.00003471     0.75542521    -0.47113662
H     -0.00012519    -0.75550246    -0.47100258
3
Time:     0.360000 au
O      0.00000582     0.00000497     0.11777839
H      0.00003570     0.75542457    -0.47113604
H     -0.00012876    -0.75550402    -0.47099818
3
Time:     0.370000 au
O      0.00000598     0.00000510     0.11777808
H      0.00003669     0.75542393    -0.47113547
H     -0.00013234    -0.75550560    -0.47099378
3
Time:     0.380000 au
O      0.00000614     0.00000524     0.11777777
H      0.00003768     0.75542331    -0.47113490
H     -0.00013592    -0.75550718    -0.47098938
3
Time:     0.390000 au
O      0.00000630     0.00000538     0.11777746
H      0.00003867     0.75542269    -0.47113434
H     -0.00013949    -0.75550877    -0.47098499
3
Time:     0.400000 au
O      0.00000646     0.00000552     0.11777715
H      0.00003967     0.75542208    -0.47113378
H     -0.00014307    -0.75551037    -0.47098060
3
Time:     0.410000 au
O      0.00000662     0.00000566     0.11777684
H      0.00004066     0.75542148    -0.47113323
H     -0.00014665    -0.75551197    -0.47097622
3
Time:     0.420000 au
O      0.00000679     0.00000579     0.11777653
H      0.00004165     0.75542089    -0.47113269
H     -0.00015023    -0.75551359    -0.47097184
3
Time:     0.430000 au
O      0.00000695     0.00000593     0.11777623
H      0.00004264     0.75542030    -0.47113214
H     -0.00015380    -0.75551521    -0.47096747
3
Time:     0.440000 au
O      0.00000711     0.00000607     0.11777592
H      0.00004363     0.75541973    -0.47113161
H     -0.00015738    -0.75551684    -0.47096311
3
Time:     0.450000 au
O      0.00000727     0.00000621     0.11777561
H      0.00004462     0.75541916    -0.47113108
H     -0.00016096    -0.75551848    -0.47095875
3
Time:     0.460000 au
O      0.00000743     0.00000635     0.11777531
H      0.00004562     0.75541860    -0.47113055
H     -0.00016453    -0.75552013    -0.47095439
3
Time:     0.470000 au
O      0.00000759     0.00000648     0.11777500
H      0.00004661     0.75541805    -0.47113003
H     -0.00016811    -0.75552179    -0.47095004
3
Time:     0.480000 au
O      0.00000776     0.00000662     0.11777470
H      0.00004760     0.75541751    -0.47112951
H     -0.00017169    -0.75552345    -0.47094569
3
Time:     0.490000 au
O      0.00000792     0.00000676     0.11777440
H      0.00004859     0.75541698    -0.47112900
H     -0.00017526    -0.75552513    -0.47094135
3
Time:     0.500000 au
O      0.00000808     0.00000690     0.11777409
H      0.00004958     0.75541645    -0.47112850
H     -0.00017884    -0.75552681    -0.47093702
3
Time:     0.510000 au
O      0.00000824     0.00000704     0.11777379
H      0.00005057     0.75541594    -0.47112799
H     -0.00018242    -0.75552850    -0.47093269
3
Time:     0.520000 au
O      0.00000840     0.00000717     0.11777349
H      0.00005157     0.75541543    -0.47112750
H     -0.00018599    -0.75553020    -0.47092836
3
Time:     0.530000 au
O      0.00000856     0.00000731     0.11777319
H      0.00005256     0.75541493    -0.47112701
H     -0.00018957    -0.75553191    -0.47092404
3
Time:     0.540000 au
O      0.00000872     0.00000745     0.11777289
H      0.00005355     0.75541444    -0.47112652
H     -0.00019315    -0.75553362    -0.47091972
3
Time:     0.550000 au
O      0.00000889     0.00000759     0.11777259
H      0.00005454     0.75541395    -0.47112604
H     -0.00019672    -0.75553535    -0.47091541
3
Time:     0.560000 au
O      0.00000905     0.00000773     0.11777229
H      0.00005553     0.75541348    -0.47112556
H     -0.00020030    -0.75553708    -0.47091111
3
Time:     0.570000 au
O      0.00000921     0.00000786     0.11777199
H      0.00005652     0.75541301    -0.47112509
H     -0.00020388    -0.75553882    -0.47090681
3
Time:     0.580000 au
O      0.00000937     0.00000800     0.11777170
H      0.00005752     0.75541256    -0.47112463
H     -0.00020745    -0.75554057    -0.47090251
3
Time:     0.590000 au
O      0.00000953     0.00000814     0.11777140
H      0.00005851     0.75541211    -0.47112417
H     -0.00021103    -0.75554233    -0.47089822
3
Time:     0.600000 au
O      0.00000969     0.00000828     0.11777110
H      0.00005950     0.75541167    -0.47112371
H     -0.00021461    -0.75554410    -0.47089394
3
Time:     0.610000 au
O      0.00000986     0.00000841     0.11777081
H      0.00006049     0.75541123    -0.47112326
H     -0.00021819    -0.75554587    -0.47088966
3
Time:     0.620000 au
O      0.00001002     0.00000855     0.11777051
H      0.00006148     0.75541081    -0.47112282
H     -0.00022176    -0.75554765    -0.47088538
3
Time:     0.630000 au
O      0.00001018     0.00000869     0.11777022
H      0.00006247     0.75541039    -0.47112238
H     -0.00022534    -0.75554944    -0.47088111
3
Time:     0.640000 au
O      0.00001034     0.00000883     0.11776992
H      0.00006347     0.75540999    -0.47112194
H     -0.00022892    -0.75555124    -0.47087685
3
Time:     0.650000 au
O      0.00001050     0.00000897     0.11776963
H      0.00006446     0.75540959    -0.47112151
H     -0.00023249    -0.75555305    -0.47087259
3
Time:     0.660000 au
O      0.00001066     0.00000910     0.11776934
H      0.00006545     0.75540920    -0.47112109
H     -0.00023607    -0.75555487    -0.47086833
3
Time:     0.670000 au
O      0.00001083     0.00000924     0.11776905
H      0.00006644     0.75540882    -0.47112067
H     -0.00023965    -0.75555669    -0.47086408
3
Time:     0.680000 au
O      0.00001099     0.00000938     0.11776876
H      0.00006743     0.75540844    -0.47112025
H     -0.00024322    -0.75555853    -0.47085984
3
Time:     0.690000 au
O      0.00001115     0.00000952     0.11776846
H      0.00006842     0.75540808    -0.47111984
H     -0.00024680    -0.75556037    -0.47085560
3
Time:     0.700000 au
O      0.00001131     0.00000966     0.11776817
H      0.00006942     0.75540772    -0.47111944
H     -0.00025038    -0.75556222    -0.47085136
3
Time:     0.710000 au
O      0.00001147     0.00000979     0.11776789
H      0.00007041     0.75540737    -0.47111904
H     -0.00025395    -0.75556408    -0.47084713
3
Time:     0.720000 au
O      0.00001163     0.00000993     0.11776760
H      0.00007140     0.75540703    -0.47111864
H     -0.00025753    -0.75556595    -0.47084291
3
Time:     0.730000 au
O      0.00001179     0.00001007     0.11776731
H      0.00007239     0.75540670    -0.47111825
H     -0.00026111    -0.75556782    -0.47083869
3
Time:     0.740000 au
O      0.00001196     0.00001021     0.11776702
H      0.00007338     0.75540638    -0.47111787
H     -0.00026468    -0.75556971    -0.47083448
3
Time:     0.750000 au
O      0.00001212     0.00001035     0.11776673
H      0.00007437     0.75540606    -0.47111749
H     -0.00026826    -0.75557160    -0.47083027
3
Time:     0.760000 au
O      0.00001228     0.00001048     0.11776645
H      0.00007537     0.75540576    -0.47111711
H     -0.00027184    -0.75557350    -0.47082606
3
Time:     0.770000 au
O      0.00001244     0.00001062     0.11776616
H      0.00007636     0.75540546    -0.47111674
H     -0.00027542    -0.75557541    -0.47082186
3
Time:     0.780000 au
O      0.00001260     0.00001076     0.11776588
H      0.00007735     0.75540517    -0.47111638
H     -0.00027899    -0.75557733    -0.47081767
3
Time:     0.790000 au
O      0.00001276     0.00001090     0.11776559
H      0.00007834     0.75540489    -0.47111602
H     -0.00028257    -0.75557925    -0.47081348
3
Time:     0.800000 au
O      0.00001293     0.00001104     0.11776531
H      0.00007933     0.75540462    -0.47111567
H     -0.00028615    -0.75558119    -0.47080930
3
Time:     0.810000 au
O      0.00001309     0.00001117     0.11776503
H      0.00008032     0.75540435    -0.47111532
H     -0.00028972    -0.75558313    -0.47080512
3
Time:     0.820000 au
O      0.00001325     0.00001131     0.11776474
H      0.00008132     0.75540410    -0.47111497
H     -0.00029330    -0.75558508    -0.47080094
3
Time:     0.830000 au
O      0.00001341     0.00001145     0.11776446
H      0.00008231     0.75540385    -0.47111463
H     -0.00029688    -0.75558704    -0.47079677
3
Time:     0.840000 au
O      0.00001357     0.00001159     0.11776418
H      0.00008330     0.75540361    -0.47111430
H     -0.00030045    -0.75558901    -0.47079261
3
Time:     0.850000 au
O      0.00001373     0.00001173     0.11776390
H      0.00008429     0.75540338    -0.47111397
H     -0.00030403    -0.75559099    -0.47078845
3
Time:     0.860000 au
O      0.00001390     0.00001186     0.11776362
H      0.00008528     0.75540316    -0.47111365
H     -0.00030761    -0.75559297    -0.47078430
3
Time:     0.870000 au
O      0.00001406     0.00001200     0.11776334
H      0.00008627     0.75540294    -0.47111333
H     -0.00031118    -0.75559496    -0.47078015
3
Time:     0.880000 au
O      0.00001422     0.00001214     0.11776306
H      0.00008727     0.75540274    -0.47111301
H     -0.00031476    -0.75559697    -0.47077601
3
Time:     0.890000 au
O      0.00001438     0.00001228     0.11776279
H      0.00008826     0.75540254    -0.47111271
H     -0.00031834    -0.75559898    -0.47077187
3
Time:     0.900000 au
O      0.00001454     0.00001242     0.11776251
H      0.00008925     0.75540235    -0.47111240
H     -0.00032191    -0.75560100    -0.47076773
3
Time:     0.910000 au
O      0.00001470     0.00001255     0.11776223
H      0.00009024     0.75540217    -0.47111210
H     -0.00032549    -0.75560302    -0.47076360
3
Time:     0.920000 au
O      0.00001486     0.00001269     0.11776196
H      0.00009123     0.75540200    -0.47111181
H     -0.00032907    -0.75560506    -0.47075948
3
Time:     0.930000 au
O      0.00001503     0.00001283     0.11776168
H      0.00009222     0.75540184    -0.47111152
H     -0.00033265    -0.75560710    -0.47075536
3
Time:     0.940000 au
O      0.00001519     0.00001297     0.11776141
H      0.00009322     0.75540168    -0.47111124
H     -0.00033622    -0.75560915    -0.47075125
3
Time:     0.950000 au
O      0.00001535     0.00001310     0.11776113
H      0.00009421     0.75540154    -0.47111096
H     -0.00033980    -0.75561121    -0.47074714
3
Time:     0.960000 au
O      0.00001551     0.00001324     0.11776086
H      0.00009520     0.75540140    -0.47111069
H     -0.00034338    -0.75561328    -0.47074304
3
Time:     0.970000 au
O      0.00001567     0.00001338     0.11776058
H      0.00009619     0.75540127    -0.47111042
H     -0.00034695    -0.75561536    -0.47073894
3
Time:     0.980000 au
O      0.00001583     0.00001352     0.11776031
H      0.00009718     0.75540115    -0.47111016
H     -0.00035053    -0.75561745    -0.47073485
3
Time:     0.990000 au
O      0.00001600     0.00001366     0.11776004
H      0.00009817     0.75540104    -0.47110990
H     -0.00035411    -0.75561954    -0.47073076
